c "23247.clq"
p edge 142 552
e 1 5
e 1 6
e 1 7
e 1 21
e 1 35
e 1 47
e 1 54
e 1 62
e 1 79
e 1 93
e 2 5
e 2 6
e 2 7
e 2 8
e 2 9
e 2 10
e 2 11
e 2 16
e 2 17
e 2 21
e 2 23
e 2 24
e 2 26
e 2 33
e 2 34
e 2 37
e 2 40
e 2 42
e 2 46
e 2 47
e 2 55
e 2 56
e 2 63
e 2 66
e 2 67
e 2 70
e 2 83
e 2 94
e 2 102
e 2 109
e 2 112
e 2 116
e 2 117
e 2 118
e 2 122
e 2 126
e 2 134
e 2 136
e 2 137
e 2 140
e 2 142
e 3 5
e 3 6
e 3 9
e 3 11
e 3 12
e 3 14
e 3 18
e 3 19
e 3 21
e 3 23
e 3 24
e 3 27
e 3 28
e 3 30
e 3 32
e 3 42
e 3 69
e 3 101
e 3 124
e 3 133
e 4 5
e 4 71
e 5 6
e 5 7
e 5 8
e 5 9
e 5 10
e 5 11
e 5 13
e 5 15
e 5 18
e 5 19
e 5 22
e 5 23
e 5 27
e 5 29
e 5 52
e 5 53
e 5 55
e 5 57
e 5 59
e 5 67
e 5 70
e 5 79
e 5 81
e 5 84
e 5 96
e 5 103
e 5 111
e 5 120
e 5 121
e 5 124
e 5 125
e 5 126
e 6 7
e 6 8
e 6 9
e 6 14
e 6 16
e 6 17
e 6 29
e 6 30
e 6 38
e 6 45
e 6 52
e 6 53
e 6 64
e 6 74
e 6 79
e 6 128
e 6 129
e 6 142
e 7 8
e 7 10
e 7 11
e 7 12
e 7 14
e 7 25
e 7 28
e 7 36
e 7 42
e 7 44
e 7 86
e 7 87
e 7 92
e 7 99
e 7 106
e 7 109
e 7 120
e 7 127
e 7 132
e 7 141
e 8 10
e 8 12
e 8 13
e 8 16
e 8 17
e 8 20
e 8 21
e 8 22
e 8 25
e 8 26
e 8 30
e 8 37
e 8 45
e 8 46
e 8 47
e 8 68
e 8 70
e 8 73
e 8 78
e 8 94
e 8 95
e 8 101
e 8 103
e 8 115
e 9 13
e 9 20
e 9 22
e 9 26
e 9 48
e 9 56
e 9 93
e 9 115
e 9 121
e 9 127
e 10 14
e 10 25
e 10 28
e 10 32
e 10 35
e 10 39
e 10 60
e 10 73
e 10 88
e 10 95
e 10 105
e 10 123
e 10 133
e 11 12
e 11 13
e 11 15
e 11 17
e 11 18
e 11 20
e 11 24
e 11 27
e 11 31
e 11 38
e 11 42
e 11 44
e 11 45
e 11 51
e 11 62
e 11 66
e 11 74
e 11 80
e 11 85
e 11 98
e 11 102
e 11 109
e 11 110
e 11 125
e 11 132
e 11 141
e 12 48
e 12 50
e 12 52
e 12 59
e 12 101
e 12 119
e 12 140
e 13 15
e 13 16
e 13 20
e 13 40
e 13 46
e 13 97
e 13 119
e 14 15
e 14 24
e 14 31
e 14 39
e 14 50
e 14 51
e 14 81
e 14 87
e 15 27
e 15 50
e 15 72
e 15 98
e 15 99
e 15 108
e 16 18
e 16 22
e 16 30
e 16 32
e 16 34
e 16 43
e 16 52
e 16 60
e 16 68
e 16 80
e 16 91
e 16 107
e 16 122
e 17 19
e 17 57
e 17 64
e 17 65
e 17 83
e 17 85
e 17 92
e 17 104
e 17 122
e 17 131
e 18 19
e 18 23
e 18 26
e 18 28
e 18 34
e 18 35
e 18 37
e 18 51
e 18 62
e 18 69
e 18 72
e 18 77
e 18 88
e 18 90
e 18 92
e 18 113
e 18 114
e 18 117
e 18 123
e 18 125
e 19 25
e 19 33
e 19 37
e 19 39
e 19 68
e 19 71
e 19 73
e 19 75
e 19 78
e 19 100
e 19 102
e 19 108
e 19 111
e 19 112
e 19 130
e 19 131
e 19 132
e 20 31
e 20 61
e 21 33
e 21 54
e 21 56
e 21 68
e 21 94
e 21 104
e 21 106
e 21 107
e 21 111
e 21 139
e 22 33
e 22 43
e 22 44
e 22 75
e 22 124
e 23 36
e 23 53
e 23 58
e 23 67
e 23 114
e 23 137
e 23 138
e 24 29
e 24 31
e 24 48
e 24 49
e 24 50
e 24 54
e 24 76
e 25 35
e 25 61
e 25 62
e 25 91
e 26 29
e 26 36
e 26 38
e 26 41
e 26 57
e 26 66
e 26 83
e 26 89
e 26 100
e 26 113
e 26 117
e 26 120
e 26 135
e 27 39
e 27 46
e 27 57
e 27 99
e 29 32
e 29 36
e 29 59
e 29 126
e 30 61
e 30 63
e 30 79
e 30 91
e 30 95
e 30 119
e 30 128
e 31 38
e 31 95
e 32 34
e 32 48
e 32 71
e 32 78
e 32 105
e 32 138
e 33 55
e 33 61
e 33 82
e 33 84
e 33 85
e 33 87
e 33 97
e 33 117
e 33 130
e 33 131
e 34 63
e 34 76
e 34 77
e 34 94
e 34 100
e 34 110
e 34 125
e 34 140
e 35 41
e 35 58
e 35 65
e 35 66
e 35 82
e 36 83
e 36 96
e 37 40
e 37 41
e 37 43
e 37 45
e 37 56
e 37 75
e 37 78
e 37 107
e 38 40
e 38 43
e 38 51
e 38 54
e 38 55
e 38 60
e 38 67
e 38 69
e 38 72
e 38 88
e 38 98
e 38 103
e 38 108
e 38 116
e 38 139
e 39 47
e 39 49
e 39 69
e 39 98
e 39 100
e 39 101
e 39 111
e 40 41
e 40 44
e 40 49
e 40 86
e 40 99
e 40 115
e 40 118
e 41 64
e 41 82
e 41 84
e 42 138
e 43 80
e 43 89
e 44 58
e 44 106
e 44 127
e 45 86
e 46 49
e 46 64
e 46 114
e 46 133
e 46 139
e 47 96
e 47 97
e 47 113
e 48 63
e 48 89
e 49 53
e 49 72
e 50 58
e 50 90
e 50 137
e 51 89
e 51 93
e 52 77
e 52 107
e 52 120
e 52 126
e 53 59
e 53 60
e 53 121
e 55 102
e 55 112
e 55 127
e 57 65
e 57 74
e 57 85
e 58 90
e 58 119
e 60 70
e 60 82
e 60 123
e 61 73
e 61 93
e 61 141
e 62 71
e 62 81
e 62 84
e 62 86
e 63 65
e 63 76
e 63 110
e 63 118
e 64 92
e 64 142
e 66 76
e 67 75
e 67 109
e 68 74
e 68 129
e 69 77
e 71 121
e 71 131
e 72 87
e 72 90
e 72 130
e 72 135
e 73 80
e 73 104
e 73 110
e 73 116
e 73 132
e 73 136
e 74 81
e 74 108
e 74 136
e 74 142
e 75 97
e 76 105
e 76 106
e 77 113
e 78 88
e 78 140
e 81 91
e 81 103
e 81 129
e 81 136
e 82 104
e 82 124
e 83 128
e 83 129
e 87 96
e 87 118
e 91 116
e 93 130
e 93 135
e 94 105
e 95 112
e 97 115
e 97 138
e 98 122
e 100 137
e 105 139
e 106 114
e 106 128
e 111 141
e 114 134
e 121 134
e 122 123
e 126 135
e 128 133
e 130 134
